LibMLKEM/why3-cvc5/mlkem.ads_187_23_postcondition_1.smt2
;; produced by cvc5.drv ;;
(set-logic ALL)
(set-info :smt-lib-version 2.6)
;;; generated by SMT-LIB2 driver
;;; SMT-LIB2 driver: bit-vectors, common part
;;; SMT-LIB2: integer arithmetic
(define-fun __cdiv ((x Int) (y Int)) Int (ite (>= x 0) (div x y) (- (div (- x) y))))
(define-fun __cmod ((x Int) (y Int)) Int (ite (>= x 0) (mod x y) (- (mod (- x) y))))
;; "mod"
(define-fun mod1 ((x Int) (y Int)) Int
  (ite (<= 0 y) (mod x y) (- (mod (- x) y))))

;; "pow2"
(declare-fun pow2 (Int) Int)

(declare-const two_power_size_minus_one Int)

;; "two_power_size_minus_one_val"
(assert (= two_power_size_minus_one (pow2 (- 16 1))))

;; "min"
(define-fun min ((x Int) (y Int)) Int
  (ite (<= x y) x y))

;; "max"
(define-fun max ((x Int) (y Int)) Int
  (ite (<= x y) y x))

;; "Min_r"
(assert (forall ((x Int) (y Int)) (=> (<= y x) (= (min x y) y))))

;; "Max_l"
(assert (forall ((x Int) (y Int)) (=> (<= y x) (= (max x y) x))))

;; "Min_comm"
(assert (forall ((x Int) (y Int)) (= (min x y) (min y x))))

;; "Max_comm"
(assert (forall ((x Int) (y Int)) (= (max x y) (max y x))))

;; "Min_assoc"
(assert
  (forall ((x Int) (y Int) (z Int)) (= (min (min x y) z) (min x (min y z)))))

;; "Max_assoc"
(assert
  (forall ((x Int) (y Int) (z Int)) (= (max (max x y) z) (max x (max y z)))))

(declare-const left (_ BitVec 16))

(declare-const right (_ BitVec 16))

;; "in_range"
(define-fun in_range ((x Int)) Bool
  (and (<= (- 2147483648) x) (<= x 2147483647)))

;; "in_range"
(define-fun in_range1 ((x Int)) Bool
  (and (<= (- 2147483648) x) (<= x 2147483647)))

;; "in_range"
(define-fun in_range2 ((x Int)) Bool
  (and (<= (- 9223372036854775808) x) (<= x 9223372036854775807)))

;; "in_range"
(define-fun in_range3 ((x (_ BitVec 16))) Bool
  (and (bvule #x0000 x) (bvule x #x0D00)))

;; "in_range_int"
(define-fun in_range_int ((x Int)) Bool
  (and (<= 0 x) (<= x 3328)))

;; Goal "def'vc"
;; File "mlkem.ads", line 184, characters 0-0
(assert
  (not
  (forall ((r2 Int) (r Int) (r1 Int) (r3 Int))
    (=>
      (in_range3 left)
      (=>
        (in_range3 right)
        (=>
          (in_range2 r2)
          (=>
            (in_range1 r)
            (=>
              (in_range1 r1)
              (=>
                (in_range1 r3)
                (forall ((r11 Int))
                  (=>
                    (= r11 (* (bv2nat left) (bv2nat right)))
                    (forall ((r21 Int))
                      (=>
                        (= r21 (* r11 41285357))
                        (let ((o (__cdiv r21 137438953472)))
                          (=>
                            (in_range1 o)
                            (forall ((r31 Int))
                              (=>
                                (= r31 o)
                                (=>
                                  (=>
                                    (and
                                      (not (= left #x0000))
                                      (not (= right #x0000)))
                                    (not (= (* (__cdiv r11 3329) 3329) r11)))
                                  (=>
                                    (= r31 (__cdiv r11 3329))
                                    (let ((o1 (* r31 3329)))
                                      (=>
                                        (in_range o1)
                                        (let ((o2 (- r11 o1)))
                                          (=>
                                            (in_range o2)
                                            (forall ((r4 Int))
                                              (=>
                                                (= r4 o2)
                                                (=>
                                                  (= ((_ int2bv 16) r4) ((_ int2bv 16) 
                                                  (mod1
                                                    r11
                                                    3329)))
                                                  (=>
                                                    (in_range_int r4)
                                                    (forall ((mlkem__zq__Omultiply__result (_ BitVec 16)))
                                                      (=>
                                                        (= mlkem__zq__Omultiply__result ((_ int2bv 16) r4))
                                                        (= mlkem__zq__Omultiply__result ((_ int2bv 16) 
                                                        (mod1
                                                          (* (bv2nat 
                                                          left) (bv2nat 
                                                          right))
                                                          3329))))))))))))))))))))))))))))))))

(check-sat)
